webassembly/ejemplos_dzn/8/folder8_json_89.dzn
TERM = { '.', 's(2)', 'in_1', 'local_0', 'local_1', 'in_2', 'in_3', 's(1)', 's(0)', 'in_0'};
null = '.';
s = 8;
n = 9;
ndeps = 4;
max_registers_sz = 5;
NR = 2;
registers = [|'local_0', 'in_0', |'local_1', 's(2)'|];
dependencies = [|'i32.load8_s_1', 'call[function_index(0)]_3', |'call[function_index(0)]_3', 'i32.load8_u_4', |'i32.load8_s_2', 'call[function_index(0)]_3', |'i32.load8_u_4', 'i32.store8_7'|];
GET_ENUM = { GET1, GET2, GET3, GET4, GET5, GET6, GET7};
SET_ENUM = { SET1, SET2, SET3, SET4, SET5, SET6, SET7};
TEE_ENUM = { TEE1, TEE2, TEE3, TEE4, TEE5, TEE6, TEE7};
N = 5;
OP = { 'call[function_index(0)]_3', 'i32.load8_s_1', 'i32.load8_s_2', 'i32.load8_u_4', 'i32.store8_7' };
in_ops = [3, 1, 1, 1, 2 ];
out_ops = [0, 1, 1, 1, 0 ];
in1 = ['s(1)', 'in_0', 's(0)', 'in_3', 'in_0' ];
in2 = ['in_1', '.', '.', '.', 's(2)' ];
in3 = ['in_2', '.', '.', '.', '.' ];
out1 = ['.', 's(0)', 's(1)', 's(2)', '.' ];
out2 = ['.', '.', '.', '.', '.' ];
out3 = ['.', '.', '.', '.', '.' ];
comm = [false, false, false, false, false ];
gas = [1, 1, 1, 1, 1 ];
sz = [1, 1, 1, 1, 1 ];
stor = [true, false, false, false, true ];
lb = [ 1, 1, 1, 1, 1 ];
ub = [ 8, 8, 8, 8, 8 ];
startstack = [ 'in_0', 'in_1', 'in_2', 'in_3', null, null, null, null, null ];
endstack = [ null, null, null, null, null, null, null, null, null ];
